0 2
0 3
0 4
0 5
0 10
0 12
0 13
0 15
0 19
0 20
0 22
0 26
0 27
0 29
0 31
0 32
0 36
0 38
0 39
0 41
1 4
1 6
1 7
1 10
1 11
1 12
1 13
1 14
1 19
1 20
1 21
1 22
1 25
1 27
1 28
1 29
1 31
1 39
1 40
1 41
2 4
2 8
2 9
2 11
2 12
2 13
2 15
2 16
2 17
2 19
2 23
2 24
2 25
2 27
2 34
2 35
2 37
2 38
2 39
3 6
3 7
3 8
3 10
3 11
3 13
3 14
3 15
3 19
3 20
3 21
3 26
3 31
3 32
3 33
3 34
3 36
3 40
3 42
4 5
4 8
4 9
4 13
4 20
4 21
4 24
4 25
4 26
4 28
4 31
4 33
4 34
4 35
4 38
4 41
4 42
5 6
5 8
5 9
5 10
5 11
5 12
5 13
5 14
5 15
5 17
5 18
5 21
5 23
5 25
5 27
5 29
5 33
5 40
6 7
6 9
6 10
6 14
6 15
6 16
6 17
6 18
6 19
6 22
6 23
6 30
6 31
6 32
6 35
6 37
6 40
7 8
7 11
7 12
7 14
7 17
7 18
7 20
7 24
7 25
7 28
7 30
7 32
7 34
7 35
7 36
7 37
7 38
8 12
8 16
8 17
8 18
8 21
8 26
8 28
8 33
8 34
8 35
8 37
8 39
8 40
8 41
8 42
9 10
9 11
9 15
9 17
9 18
9 21
9 22
9 23
9 27
9 28
9 29
9 30
9 36
9 39
9 41
9 42
10 14
10 16
10 20
10 24
10 25
10 26
10 28
10 30
10 31
10 32
10 33
10 35
10 37
10 42
11 16
11 18
11 19
11 22
11 23
11 24
11 29
11 30
11 34
11 36
11 38
11 39
11 40
11 42
12 16
12 22
12 23
12 24
12 26
12 27
12 29
12 30
12 32
12 33
12 36
12 37
12 38
12 41
13 14
13 15
13 16
13 17
13 18
13 19
13 20
13 21
13 22
13 23
13 24
13 25
13 26
13 27
13 28
14 15
14 16
14 17
14 18
14 19
14 20
14 24
14 25
14 26
14 28
14 29
14 33
14 34
14 36
15 21
15 23
15 24
15 28
15 29
15 32
15 33
15 37
15 38
15 39
15 40
15 41
15 42
16 18
16 19
16 21
16 22
16 23
16 24
16 25
16 29
16 32
16 34
16 36
16 39
16 41
17 19
17 21
17 22
17 23
17 24
17 26
17 27
17 30
17 33
17 35
17 36
17 40
17 41
18 20
18 21
18 23
18 27
18 28
18 29
18 33
18 34
18 35
18 37
18 38
18 42
19 21
19 22
19 30
19 32
19 34
19 35
19 36
19 38
19 39
19 40
19 41
20 22
20 23
20 24
20 27
20 29
20 30
20 31
20 32
20 35
20 37
20 39
20 40
21 24
21 30
21 31
21 32
21 33
21 35
21 36
21 37
21 42
22 23
22 24
22 25
22 28
22 31
22 37
22 38
22 39
22 40
22 41
23 26
23 28
23 30
23 32
23 33
23 35
23 38
23 40
24 29
24 34
24 35
24 38
24 39
24 41
24 42
25 26
25 27
25 29
25 30
25 32
25 34
25 35
25 37
25 38
25 39
25 42
26 27
26 28
26 29
26 30
26 31
26 34
26 36
26 37
26 38
26 42
27 28
27 30
27 31
27 32
27 37
27 39
27 40
27 41
27 42
28 30
28 31
28 32
28 33
28 36
28 37
28 39
29 30
29 31
29 36
29 38
29 39
29 40
29 41
30 32
30 34
30 35
30 41
30 42
31 32
31 33
31 34
31 35
31 36
31 38
31 40
31 41
32 33
32 37
32 38
32 42
33 34
33 36
33 38
33 40
33 41
33 42
34 35
34 38
34 39
34 40
34 42
35 36
35 37
35 40
35 41
36 37
36 38
36 41
36 42
37 39
37 40
37 42
38 42
39 40
39 41
39 42
40 41
